units		metal
atom_style	charge
dimension       3
boundary        p p p

read_data  	TiO2

mass		1 47.867
mass		2 16.00

pair_style	buck/coul/cut 200
pair_coeff	1 1 31120.4 0.154 5.247
pair_coeff	1 2 16957.7 0.194 12.593
pair_coeff	2 2 11782.8 0.234 30.222

timestep        0.002
read_dump interDatain.dump 0 x y z q vx vy vz

fix		1 all nve
thermo      	10000

dump		1 all custom 1000 c.dump id type q x y z vx vy vz

run  		50000000
